100
128
46
40
15
22
33
51
56
53
62
51
49
17
39
15
2
25
53
37
50
61
21
34
31
48
57
28
45
64
26
61
21
32
60
56
36
40
58
40
30
3
1
26
31
32
41
20
1
28
57
29
55
3
31
1
2
26
7
5
27
52
1
7
35
8
5
26
23
2
4
1
44
21
58
52
41
6
48
44
50
56
57
47
21
60
22
61
36
42
6
44
7
1
62
34
2
42
5
2
5
64